NAME: random-72-1044
TYPE: TSP
COMMENT: size=72 seed=1044
DIMENSION: 146
EDGE_WEIGHT_TYPE: EUC_2D
NODE_COORD_SECTION
+0 508 317
-0 508 317
+1 188 452
-1 233 556
+2 889 371
-2 560 586
+3 699 556
-3 843 341
+4 488 900
-4 160 285
+5 887 184
-5 938 671
+6 339 202
-6 244 978
+7 106 136
-7 618 979
+8 250 45
-8 744 578
+9 56 73
-9 478 617
+10 269 393
-10 454 242
+11 380 255
-11 659 823
+12 788 323
-12 444 526
+13 696 847
-13 767 629
+14 427 385
-14 317 971
+15 0 982
-15 423 605
+16 834 327
-16 769 134
+17 149 880
-17 378 717
+18 957 334
-18 269 668
+19 418 940
-19 335 248
+20 52 26
-20 324 498
+21 566 501
-21 724 997
+22 23 343
-22 51 19
+23 418 663
-23 889 603
+24 294 762
-24 465 185
+25 724 732
-25 871 90
+26 508 140
-26 249 470
+27 557 336
-27 737 857
+28 814 637
-28 96 399
+29 846 922
-29 930 136
+30 622 466
-30 195 848
+31 264 165
-31 559 570
+32 628 171
-32 326 100
+33 676 471
-33 654 736
+34 493 690
-34 913 990
+35 408 505
-35 212 870
+36 282 138
-36 404 793
+37 579 294
-37 620 371
+38 423 460
-38 525 380
+39 312 127
-39 564 358
+40 486 705
-40 90 716
+41 709 309
-41 765 380
+42 221 580
-42 952 508
+43 860 129
-43 258 453
+44 392 769
-44 813 343
+45 432 164
-45 900 832
+46 908 12
-46 101 584
+47 545 474
-47 659 976
+48 318 369
-48 17 642
+49 377 464
-49 550 268
+50 543 729
-50 582 12
+51 912 466
-51 637 13
+52 207 964
-52 838 63
+53 327 873
-53 299 975
+54 307 749
-54 706 207
+55 265 636
-55 279 148
+56 380 346
-56 497 900
+57 888 712
-57 127 577
+58 287 481
-58 130 12
+59 333 805
-59 629 397
+60 680 47
-60 884 490
+61 865 748
-61 923 232
+62 230 543
-62 136 72
+63 423 795
-63 193 264
+64 268 794
-64 906 785
+65 656 445
-65 990 925
+66 217 733
-66 95 806
+67 80 945
-67 830 217
+68 471 457
-68 682 756
+69 795 730
-69 873 382
+70 250 11
-70 976 246
+71 838 579
-71 38 355
+72 963 708
-72 188 568
PRECEDENCE_SECTION
+0 -0
+1 -1
+2 -2
+3 -3
+4 -4
+5 -5
+6 -6
+7 -7
+8 -8
+9 -9
+10 -10
+11 -11
+12 -12
+13 -13
+14 -14
+15 -15
+16 -16
+17 -17
+18 -18
+19 -19
+20 -20
+21 -21
+22 -22
+23 -23
+24 -24
+25 -25
+26 -26
+27 -27
+28 -28
+29 -29
+30 -30
+31 -31
+32 -32
+33 -33
+34 -34
+35 -35
+36 -36
+37 -37
+38 -38
+39 -39
+40 -40
+41 -41
+42 -42
+43 -43
+44 -44
+45 -45
+46 -46
+47 -47
+48 -48
+49 -49
+50 -50
+51 -51
+52 -52
+53 -53
+54 -54
+55 -55
+56 -56
+57 -57
+58 -58
+59 -59
+60 -60
+61 -61
+62 -62
+63 -63
+64 -64
+65 -65
+66 -66
+67 -67
+68 -68
+69 -69
+70 -70
+71 -71
+72 -72
EOF
